(synth-fun lemma ((x Int) (y Int)) Bool
           ((Start Bool) (Loc Int))

           ((Start Bool (
                   (=> Start Start)
                   (reach_lr Loc Loc)
                   (tree Loc)
                   (tree_p Loc)))
            (Loc Int (x y)))
)

(synth-fun rswitch () Int
           ((Start Int))
           ((Start Int (0 1 2)))
)

